c "251995.clq"
p edge 150 584
e 1 5
e 1 6
e 1 12
e 1 43
e 1 110
e 1 137
e 2 5
e 2 6
e 2 7
e 2 11
e 2 15
e 2 24
e 2 37
e 2 56
e 2 59
e 2 66
e 2 70
e 2 85
e 2 92
e 2 115
e 2 123
e 3 5
e 3 15
e 3 110
e 3 118
e 3 129
e 4 5
e 4 6
e 4 7
e 4 8
e 4 9
e 4 14
e 4 16
e 4 17
e 4 20
e 4 22
e 4 27
e 4 29
e 4 63
e 4 109
e 4 111
e 4 120
e 5 6
e 5 7
e 5 8
e 5 9
e 5 10
e 5 11
e 5 13
e 5 15
e 5 17
e 5 19
e 5 21
e 5 25
e 5 26
e 5 27
e 5 29
e 5 30
e 5 32
e 5 36
e 5 38
e 5 41
e 5 45
e 5 49
e 5 50
e 5 52
e 5 55
e 5 57
e 5 62
e 5 64
e 5 67
e 5 69
e 5 76
e 5 81
e 5 89
e 5 90
e 5 111
e 5 114
e 5 115
e 5 118
e 5 123
e 5 124
e 5 135
e 5 139
e 5 150
e 6 7
e 6 8
e 6 9
e 6 10
e 6 12
e 6 13
e 6 17
e 6 18
e 6 19
e 6 20
e 6 21
e 6 22
e 6 24
e 6 25
e 6 30
e 6 32
e 6 35
e 6 37
e 6 42
e 6 48
e 6 50
e 6 52
e 6 54
e 6 63
e 6 74
e 6 87
e 6 88
e 6 93
e 6 96
e 6 104
e 6 105
e 6 107
e 6 113
e 6 115
e 6 116
e 6 119
e 6 124
e 6 135
e 6 136
e 6 140
e 6 143
e 6 145
e 6 146
e 6 147
e 7 8
e 7 9
e 7 11
e 7 12
e 7 14
e 7 16
e 7 18
e 7 19
e 7 21
e 7 22
e 7 23
e 7 26
e 7 30
e 7 38
e 7 45
e 7 46
e 7 47
e 7 60
e 7 62
e 7 63
e 7 66
e 7 69
e 7 70
e 7 71
e 7 77
e 7 78
e 7 88
e 7 91
e 7 92
e 7 95
e 7 98
e 7 109
e 7 140
e 8 10
e 8 31
e 8 33
e 8 54
e 8 56
e 8 79
e 8 85
e 8 86
e 8 94
e 8 100
e 8 115
e 8 127
e 8 141
e 9 10
e 9 11
e 9 14
e 9 17
e 9 31
e 9 34
e 9 39
e 9 53
e 9 64
e 9 68
e 9 75
e 9 80
e 9 82
e 9 86
e 9 100
e 9 109
e 9 114
e 9 119
e 9 123
e 9 144
e 10 12
e 10 16
e 10 18
e 10 19
e 10 33
e 10 88
e 10 110
e 10 112
e 10 116
e 10 148
e 11 13
e 11 14
e 11 22
e 11 28
e 11 29
e 11 32
e 11 33
e 11 41
e 11 58
e 11 89
e 11 100
e 11 113
e 11 144
e 12 13
e 12 15
e 12 16
e 12 21
e 12 23
e 12 26
e 12 27
e 12 29
e 12 35
e 12 39
e 12 42
e 12 47
e 12 49
e 12 53
e 12 75
e 12 77
e 12 84
e 12 88
e 12 93
e 12 94
e 12 99
e 12 114
e 12 132
e 12 147
e 13 20
e 13 24
e 13 52
e 13 59
e 13 84
e 13 87
e 13 96
e 13 98
e 13 104
e 13 106
e 13 132
e 13 138
e 13 147
e 14 20
e 14 32
e 14 34
e 14 38
e 14 60
e 14 71
e 14 94
e 14 103
e 14 117
e 15 18
e 15 23
e 15 24
e 15 28
e 15 31
e 15 146
e 16 28
e 16 42
e 16 44
e 16 55
e 16 58
e 16 68
e 16 75
e 16 96
e 17 25
e 17 28
e 17 38
e 17 57
e 17 61
e 17 65
e 17 69
e 17 72
e 17 80
e 17 87
e 17 99
e 17 120
e 17 129
e 17 150
e 18 33
e 18 35
e 18 36
e 18 58
e 18 65
e 18 75
e 18 95
e 18 98
e 18 117
e 18 121
e 19 41
e 19 42
e 19 53
e 19 99
e 19 146
e 19 150
e 20 23
e 20 34
e 20 37
e 20 39
e 20 106
e 20 112
e 20 132
e 20 134
e 21 30
e 21 62
e 21 76
e 21 81
e 21 98
e 21 102
e 21 145
e 21 149
e 22 25
e 22 26
e 22 36
e 22 44
e 22 46
e 22 56
e 22 58
e 22 72
e 22 87
e 22 93
e 22 99
e 22 101
e 22 125
e 22 128
e 22 141
e 22 142
e 22 143
e 22 148
e 23 45
e 23 86
e 23 117
e 23 125
e 23 126
e 24 43
e 24 51
e 24 54
e 24 56
e 24 57
e 24 60
e 24 65
e 24 81
e 24 95
e 24 114
e 24 126
e 24 130
e 24 133
e 24 138
e 25 27
e 25 137
e 26 40
e 26 41
e 26 89
e 26 126
e 26 134
e 26 136
e 27 104
e 27 107
e 28 39
e 28 74
e 28 125
e 28 126
e 28 139
e 29 74
e 30 31
e 30 34
e 30 35
e 30 46
e 30 122
e 30 130
e 30 147
e 31 36
e 31 46
e 31 47
e 31 50
e 31 51
e 31 57
e 31 61
e 31 68
e 31 79
e 31 105
e 31 108
e 31 139
e 32 44
e 32 53
e 32 71
e 32 80
e 32 94
e 32 96
e 32 124
e 32 146
e 33 37
e 33 43
e 33 49
e 33 51
e 33 78
e 33 79
e 33 82
e 33 83
e 33 101
e 33 133
e 33 149
e 34 44
e 34 48
e 34 50
e 34 73
e 34 77
e 34 82
e 34 102
e 34 107
e 34 109
e 34 111
e 34 113
e 34 123
e 34 134
e 35 40
e 35 45
e 35 49
e 35 84
e 35 92
e 35 142
e 35 148
e 36 47
e 36 48
e 37 40
e 37 67
e 37 72
e 37 116
e 37 131
e 38 40
e 38 48
e 38 52
e 38 59
e 38 66
e 38 73
e 38 136
e 38 137
e 38 144
e 39 43
e 39 54
e 39 65
e 39 66
e 39 83
e 39 100
e 39 121
e 40 140
e 41 59
e 41 68
e 41 105
e 41 142
e 42 55
e 42 60
e 42 73
e 42 90
e 42 105
e 42 116
e 42 136
e 43 131
e 45 64
e 45 70
e 45 77
e 45 103
e 45 119
e 45 133
e 46 61
e 47 141
e 48 51
e 48 102
e 48 106
e 49 70
e 49 76
e 49 85
e 49 103
e 49 129
e 51 63
e 51 69
e 51 78
e 51 108
e 51 142
e 52 55
e 52 112
e 54 92
e 54 122
e 54 127
e 54 137
e 54 140
e 55 67
e 55 97
e 55 125
e 56 112
e 57 62
e 57 71
e 57 128
e 57 138
e 57 148
e 58 61
e 58 64
e 58 78
e 58 90
e 59 67
e 59 76
e 59 82
e 59 89
e 59 93
e 59 118
e 59 128
e 59 138
e 59 144
e 59 150
e 60 80
e 60 129
e 60 143
e 61 73
e 62 118
e 63 72
e 63 79
e 63 91
e 63 101
e 65 127
e 66 119
e 67 101
e 67 127
e 68 81
e 68 85
e 68 91
e 70 84
e 70 130
e 71 122
e 72 74
e 72 83
e 75 97
e 76 83
e 76 86
e 76 106
e 77 97
e 77 108
e 77 131
e 79 91
e 79 103
e 79 111
e 79 122
e 80 149
e 81 117
e 82 124
e 83 113
e 83 130
e 84 95
e 85 97
e 87 90
e 87 102
e 87 128
e 87 134
e 88 120
e 89 133
e 91 104
e 91 107
e 91 108
e 92 145
e 96 143
e 97 121
e 97 132
e 97 141
e 99 135
e 100 121
e 101 120
e 101 135
e 101 149
e 105 110
e 109 131
e 119 139
e 136 145
